46
31
44
21
13
46
2
43
40
42
17
17
4
29
44
48
30
43
6
5
37
28
10
44
9
8
17
48
44
43
25
38
43
50
31
26
39
26
20
11
41
43
4
31
34
8
16
37
38
7
10
43
12
40
35
33
27
13
41
7
44
27
38
9
35
21
14
20
30
20
40
45
21
48
32
46
31
46
42
29
44
40
43
39
20
17
9
2
13
3
32
22
36
4
40
9
39
19
22
2
